\ENCODING=ISO-8859-1
\Problem name: ilog.cplex

Maximize
 obj: 695 x(0)#0 + 946 x(1)#1 + 742 x(2)#2 + 938 x(3)#3 + 939 x(4)#4
      + 955 x(5)#5 + 1024 x(6)#6 + 482 x(7)#7 + 911 x(8)#8 + 349 x(9)#9
      + 1001 x(10)#10 + 419 x(11)#11 + 1019 x(12)#12 + 662 x(13)#13
      + 911 x(14)#14 + 656 x(15)#15 + 1033 x(16)#16 + 478 x(17)#17
      + 539 x(18)#18 + 915 x(19)#19 + 899 x(20)#20 + 523 x(21)#21
      + 831 x(22)#22 + 1023 x(23)#23 + 624 x(24)#24 + 452 x(25)#25
      + 401 x(26)#26 + 682 x(27)#27 + 1083 x(28)#28 + 544 x(29)#29
      + 735 x(30)#30 + 817 x(31)#31 + 948 x(32)#32 + 814 x(33)#33
      + 582 x(34)#34 + 858 x(35)#35 + 819 x(36)#36 + 883 x(37)#37
      + 375 x(38)#38 + 769 x(39)#39 + 638 x(40)#40 + 851 x(41)#41
      + 912 x(42)#42 + 926 x(43)#43 + 688 x(44)#44 + 923 x(45)#45
      + 651 x(46)#46 + 680 x(47)#47 + 621 x(48)#48 + 958 x(49)#49
      + 790 x(50)#50 + 574 x(51)#51 + 857 x(52)#52 + 607 x(53)#53
      + 742 x(54)#54 + 807 x(55)#55 + 935 x(56)#56 + 862 x(57)#57
      + 929 x(58)#58 + 890 x(59)#59 + 869 x(60)#60 + 461 x(61)#61
      + 539 x(62)#62 + 969 x(63)#63 + 985 x(64)#64 + 741 x(65)#65
      + 943 x(66)#66 + 934 x(67)#67 + 764 x(68)#68 + 757 x(69)#69
      + 607 x(70)#70 + 733 x(71)#71 + 945 x(72)#72 + 1015 x(73)#73
      + 528 x(74)#74 + 906 x(75)#75 + 867 x(76)#76 + 956 x(77)#77
      + 598 x(78)#78 + 1063 x(79)#79 + 494 x(80)#80 + 682 x(81)#81
      + 1086 x(82)#82 + 839 x(83)#83 + 652 x(84)#84 + 808 x(85)#85
      + 1090 x(86)#86 + 796 x(87)#87 + 811 x(88)#88 + 750 x(89)#89
      + 778 x(90)#90 + 927 x(91)#91 + 776 x(92)#92 + 736 x(93)#93
      + 1207 x(94)#94 + 946 x(95)#95 + 625 x(96)#96 + 657 x(97)#97
      + 728 x(98)#98 + 608 x(99)#99 + 518 x(100)#100 + 479 x(101)#101
      + 782 x(102)#102 + 877 x(103)#103 + 802 x(104)#104 + 699 x(105)#105
      + 263 x(106)#106 + 450 x(107)#107 + 785 x(108)#108 + 914 x(109)#109
      + 921 x(110)#110 + 808 x(111)#111 + 194 x(112)#112 + 1004 x(113)#113
      + 550 x(114)#114 + 621 x(115)#115 + 759 x(116)#116 + 649 x(117)#117
      + 796 x(118)#118 + 722 x(119)#119 + 1060 x(120)#120 + 851 x(121)#121
      + 848 x(122)#122 + 870 x(123)#123 + 1083 x(124)#124 + 573 x(125)#125
      + 608 x(126)#126 + 597 x(127)#127 + 1095 x(128)#128 + 718 x(129)#129
      + 360 x(130)#130 + 511 x(131)#131 + 1146 x(132)#132 + 736 x(133)#133
      + 828 x(134)#134 + 896 x(135)#135 + 829 x(136)#136 + 453 x(137)#137
      + 684 x(138)#138 + 599 x(139)#139 + 1013 x(140)#140 + 754 x(141)#141
      + 838 x(142)#142 + 524 x(143)#143 + 913 x(144)#144 + 804 x(145)#145
      + 992 x(146)#146 + 451 x(147)#147 + 580 x(148)#148 + 944 x(149)#149
      + 713 x(150)#150 + 820 x(151)#151 + 438 x(152)#152 + 782 x(153)#153
      + 1071 x(154)#154 + 1012 x(155)#155 + 733 x(156)#156 + 412 x(157)#157
      + 685 x(158)#158 + 588 x(159)#159 + 676 x(160)#160 + 534 x(161)#161
      + 850 x(162)#162 + 475 x(163)#163 + 865 x(164)#164 + 994 x(165)#165
      + 647 x(166)#166 + 866 x(167)#167 + 961 x(168)#168 + 649 x(169)#169
      + 814 x(170)#170 + 759 x(171)#171 + 684 x(172)#172 + 582 x(173)#173
      + 377 x(174)#174 + 838 x(175)#175 + 497 x(176)#176 + 931 x(177)#177
      + 503 x(178)#178 + 553 x(179)#179 + 770 x(180)#180 + 871 x(181)#181
      + 1034 x(182)#182 + 845 x(183)#183 + 626 x(184)#184 + 487 x(185)#185
      + 834 x(186)#186 + 937 x(187)#187 + 757 x(188)#188 + 1157 x(189)#189
      + 480 x(190)#190 + 649 x(191)#191 + 772 x(192)#192 + 650 x(193)#193
      + 1038 x(194)#194 + 1158 x(195)#195 + 714 x(196)#196 + 445 x(197)#197
      + 1028 x(198)#198 + 631 x(199)#199 + 699 x(200)#200 + 1053 x(201)#201
      + 694 x(202)#202 + 496 x(203)#203 + 1003 x(204)#204 + 639 x(205)#205
      + 791 x(206)#206 + 608 x(207)#207 + 696 x(208)#208 + 996 x(209)#209
      + 917 x(210)#210 + 449 x(211)#211 + 1019 x(212)#212 + 524 x(213)#213
      + 803 x(214)#214 + 774 x(215)#215 + 678 x(216)#216 + 1031 x(217)#217
      + 898 x(218)#218 + 675 x(219)#219 + 836 x(220)#220 + 577 x(221)#221
      + 984 x(222)#222 + 419 x(223)#223 + 1181 x(224)#224 + 687 x(225)#225
      + 568 x(226)#226 + 803 x(227)#227 + 553 x(228)#228 + 695 x(229)#229
      + 1050 x(230)#230 + 785 x(231)#231 + 851 x(232)#232 + 1195 x(233)#233
      + 870 x(234)#234 + 557 x(235)#235 + 932 x(236)#236 + 896 x(237)#237
      + 890 x(238)#238 + 692 x(239)#239 + 653 x(240)#240 + 748 x(241)#241
      + 1014 x(242)#242 + 756 x(243)#243 + 971 x(244)#244 + 989 x(245)#245
      + 660 x(246)#246 + 885 x(247)#247 + 583 x(248)#248 + 475 x(249)#249
Subject To
 c1: 707 x(0)#0 + 451 x(1)#1 + 301 x(2)#2 + 279 x(3)#3 + 354 x(4)#4
     + 623 x(5)#5 + 555 x(6)#6 + 623 x(7)#7 + 483 x(8)#8 + 474 x(9)#9
     + 908 x(10)#10 + 326 x(11)#11 + 977 x(12)#12 + 625 x(13)#13 + 941 x(14)#14
     + 87 x(15)#15 + 772 x(16)#16 + 618 x(17)#17 + 12 x(18)#18 + 376 x(19)#19
     + 70 x(20)#20 + 65 x(21)#21 + 503 x(22)#22 + 814 x(23)#23 + 707 x(24)#24
     + 884 x(25)#25 + 760 x(26)#26 + 602 x(27)#27 + 836 x(28)#28 + 534 x(29)#29
     + 997 x(30)#30 + 205 x(31)#31 + 51 x(32)#32 + 350 x(33)#33 + 65 x(34)#34
     + 29 x(35)#35 + 515 x(36)#36 + 53 x(37)#37 + 629 x(38)#38 + 917 x(39)#39
     + 231 x(40)#40 + 874 x(41)#41 + 332 x(42)#42 + 69 x(43)#43 + 271 x(44)#44
     + 477 x(45)#45 + 696 x(46)#46 + 31 x(47)#47 + 82 x(48)#48 + 78 x(49)#49
     + 992 x(50)#50 + 124 x(51)#51 + 135 x(52)#52 + 219 x(53)#53 + 358 x(54)#54
     + 690 x(55)#55 + 617 x(56)#56 + 91 x(57)#57 + 970 x(58)#58 + 551 x(59)#59
     + 629 x(60)#60 + 158 x(61)#61 + 225 x(62)#62 + 938 x(63)#63 + 181 x(64)#64
     + 648 x(65)#65 + 27 x(66)#66 + 982 x(67)#67 + 290 x(68)#68 + 777 x(69)#69
     + 399 x(70)#70 + 837 x(71)#71 + 500 x(72)#72 + 478 x(73)#73 + 103 x(74)#74
     + 334 x(75)#75 + 401 x(76)#76 + 582 x(77)#77 + 802 x(78)#78 + 511 x(79)#79
     + 334 x(80)#80 + 300 x(81)#81 + 398 x(82)#82 + 329 x(83)#83 + 249 x(84)#84
     + 503 x(85)#85 + 330 x(86)#86 + 605 x(87)#87 + 874 x(88)#88 + 90 x(89)#89
     + 60 x(90)#90 + 914 x(91)#91 + 509 x(92)#92 + 964 x(93)#93 + 824 x(94)#94
     + 980 x(95)#95 + 809 x(96)#96 + 960 x(97)#97 + 75 x(98)#98 + 827 x(99)#99
     + 470 x(100)#100 + 563 x(101)#101 + 658 x(102)#102 + 529 x(103)#103
     + 152 x(104)#104 + 159 x(105)#105 + 61 x(106)#106 + 593 x(107)#107
     + 62 x(108)#108 + 401 x(109)#109 + 291 x(110)#110 + 896 x(111)#111
     + 121 x(112)#112 + 524 x(113)#113 + 365 x(114)#114 + 357 x(115)#115
     + 892 x(116)#116 + 188 x(117)#117 + 34 x(118)#118 + 495 x(119)#119
     + 608 x(120)#120 + 298 x(121)#121 + 38 x(122)#122 + 691 x(123)#123
     + 709 x(124)#124 + 771 x(125)#125 + 265 x(126)#126 + 34 x(127)#127
     + 872 x(128)#128 + 919 x(129)#129 + 128 x(130)#130 + 76 x(131)#131
     + 919 x(132)#132 + 345 x(133)#133 + 845 x(134)#134 + 183 x(135)#135
     + 509 x(136)#136 + 108 x(137)#137 + 848 x(138)#138 + 678 x(139)#139
     + 558 x(140)#140 + 104 x(141)#141 + 379 x(142)#142 + 530 x(143)#143
     + 953 x(144)#144 + 543 x(145)#145 + 598 x(146)#146 + 169 x(147)#147
     + 313 x(148)#148 + 642 x(149)#149 + 199 x(150)#150 + 968 x(151)#151
     + 562 x(152)#152 + 914 x(153)#153 + 639 x(154)#154 + 314 x(155)#155
     + 67 x(156)#156 + 24 x(157)#157 + 437 x(158)#158 + 86 x(159)#159
     + 456 x(160)#160 + 940 x(161)#161 + 603 x(162)#162 + 369 x(163)#163
     + 573 x(164)#164 + 230 x(165)#165 + 282 x(166)#166 + 361 x(167)#167
     + 810 x(168)#168 + 69 x(169)#169 + 62 x(170)#170 + 549 x(171)#171
     + 497 x(172)#172 + 186 x(173)#173 + 393 x(174)#174 + 269 x(175)#175
     + 32 x(176)#176 + 932 x(177)#177 + 457 x(178)#178 + 549 x(179)#179
     + 598 x(180)#180 + 170 x(181)#181 + 505 x(182)#182 + 376 x(183)#183
     + 240 x(184)#184 + 923 x(185)#185 + 632 x(186)#186 + 734 x(187)#187
     + 961 x(188)#188 + 109 x(189)#189 + 643 x(190)#190 + 558 x(191)#191
     + 643 x(192)#192 + 759 x(193)#193 + 643 x(194)#194 + 938 x(195)#195
     + 904 x(196)#196 + 951 x(197)#197 + 935 x(198)#198 + 205 x(199)#199
     + 519 x(200)#200 + 267 x(201)#201 + 639 x(202)#202 + 454 x(203)#203
     + 23 x(204)#204 + 384 x(205)#205 + 542 x(206)#206 + 409 x(207)#207
     + 549 x(208)#208 + 284 x(209)#209 + 637 x(210)#210 + 177 x(211)#211
     + 677 x(212)#212 + 12 x(213)#213 + 207 x(214)#214 + 583 x(215)#215
     + 66 x(216)#216 + 628 x(217)#217 + 280 x(218)#218 + 33 x(219)#219
     + 606 x(220)#220 + 810 x(221)#221 + 996 x(222)#222 + 156 x(223)#223
     + 664 x(224)#224 + 129 x(225)#225 + 425 x(226)#226 + 607 x(227)#227
     + 761 x(228)#228 + 719 x(229)#229 + 652 x(230)#230 + 765 x(231)#231
     + 20 x(232)#232 + 13 x(233)#233 + 941 x(234)#234 + 72 x(235)#235
     + 889 x(236)#236 + 66 x(237)#237 + 913 x(238)#238 + 222 x(239)#239
     + 80 x(240)#240 + 278 x(241)#241 + 563 x(242)#242 + 789 x(243)#243
     + 245 x(244)#244 + 39 x(245)#245 + 978 x(246)#246 + 357 x(247)#247
     + 153 x(248)#248 + 814 x(249)#249 <= 88871
 c2: 880 x(0)#0 + 186 x(1)#1 + 522 x(2)#2 + 846 x(3)#3 + 792 x(4)#4
     + 254 x(5)#5 + 743 x(6)#6 + 354 x(7)#7 + 157 x(8)#8 + 328 x(9)#9
     + 990 x(10)#10 + 603 x(11)#11 + 395 x(12)#12 + 831 x(13)#13 + 690 x(14)#14
     + 404 x(15)#15 + 126 x(16)#16 + 373 x(17)#17 + 149 x(18)#18 + 534 x(19)#19
     + 476 x(20)#20 + 492 x(21)#21 + 425 x(22)#22 + 611 x(23)#23 + 923 x(24)#24
     + 17 x(25)#25 + 375 x(26)#26 + 523 x(27)#27 + 834 x(28)#28 + 282 x(29)#29
     + 67 x(30)#30 + 352 x(31)#31 + 688 x(32)#32 + 456 x(33)#33 + 534 x(34)#34
     + 338 x(35)#35 + 207 x(36)#36 + 741 x(37)#37 + 25 x(38)#38 + 752 x(39)#39
     + 7 x(40)#40 + 109 x(41)#41 + 353 x(42)#42 + 381 x(43)#43 + 770 x(44)#44
     + 940 x(45)#45 + 288 x(46)#46 + 551 x(47)#47 + 851 x(48)#48 + 451 x(49)#49
     + 469 x(50)#50 + 727 x(51)#51 + 613 x(52)#52 + 210 x(53)#53 + 73 x(54)#54
     + 226 x(55)#55 + 668 x(56)#56 + 316 x(57)#57 + 441 x(58)#58 + 977 x(59)#59
     + 206 x(60)#60 + 78 x(61)#61 + 66 x(62)#62 + 898 x(63)#63 + 992 x(64)#64
     + 237 x(65)#65 + 608 x(66)#66 + 804 x(67)#67 + 528 x(68)#68 + 945 x(69)#69
     + 341 x(70)#70 + 198 x(71)#71 + 174 x(72)#72 + 854 x(73)#73 + 841 x(74)#74
     + 693 x(75)#75 + 265 x(76)#76 + 605 x(77)#77 + 798 x(78)#78 + 887 x(79)#79
     + 803 x(80)#80 + 996 x(81)#81 + 513 x(82)#82 + 746 x(83)#83 + 284 x(84)#84
     + 810 x(85)#85 + 967 x(86)#86 + 923 x(87)#87 + 247 x(88)#88 + 736 x(89)#89
     + 125 x(90)#90 + 472 x(91)#91 + 407 x(92)#92 + 512 x(93)#93 + 629 x(94)#94
     + 125 x(95)#95 + 111 x(96)#96 + 47 x(97)#97 + 946 x(98)#98 + 703 x(99)#99
     + 692 x(100)#100 + 475 x(101)#101 + 978 x(102)#102 + 881 x(103)#103
     + 123 x(104)#104 + 291 x(105)#105 + 55 x(106)#106 + 650 x(107)#107
     + 18 x(108)#108 + 776 x(109)#109 + 892 x(110)#110 + 859 x(111)#111
     + 399 x(112)#112 + 54 x(113)#113 + 87 x(114)#114 + 401 x(115)#115
     + 866 x(116)#116 + 3 x(117)#117 + 507 x(118)#118 + 983 x(119)#119
     + 604 x(120)#120 + 452 x(121)#121 + 410 x(122)#122 + 89 x(123)#123
     + 629 x(124)#124 + 26 x(125)#125 + 620 x(126)#126 + 256 x(127)#127
     + 94 x(128)#128 + 696 x(129)#129 + 123 x(130)#130 + 888 x(131)#131
     + 515 x(132)#132 + 609 x(133)#133 + 914 x(134)#134 + 475 x(135)#135
     + 582 x(136)#136 + 275 x(137)#137 + 433 x(138)#138 + 460 x(139)#139
     + 507 x(140)#140 + 918 x(141)#141 + 234 x(142)#142 + 467 x(143)#143
     + 87 x(144)#144 + 35 x(145)#145 + 768 x(146)#146 + 364 x(147)#147
     + 383 x(148)#148 + 940 x(149)#149 + 13 x(150)#150 + 541 x(151)#151
     + 483 x(152)#152 + 232 x(153)#153 + 424 x(154)#154 + 771 x(155)#155
     + 407 x(156)#156 + 338 x(157)#157 + 664 x(158)#158 + 68 x(159)#159
     + 253 x(160)#160 + 422 x(161)#161 + 19 x(162)#162 + 154 x(163)#163
     + 692 x(164)#164 + 140 x(165)#165 + 580 x(166)#166 + 508 x(167)#167
     + 238 x(168)#168 + 488 x(169)#169 + 721 x(170)#170 + 572 x(171)#171
     + 629 x(172)#172 + 239 x(173)#173 + 104 x(174)#174 + 728 x(175)#175
     + 43 x(176)#176 + 169 x(177)#177 + 205 x(178)#178 + 10 x(179)#179
     + 739 x(180)#180 + 287 x(181)#181 + 493 x(182)#182 + 214 x(183)#183
     + 355 x(184)#184 + 435 x(185)#185 + 527 x(186)#186 + 630 x(187)#187
     + 998 x(188)#188 + 842 x(189)#189 + 535 x(190)#190 + 352 x(191)#191
     + 163 x(192)#192 + 987 x(193)#193 + 818 x(194)#194 + 154 x(195)#195
     + 800 x(196)#196 + 68 x(197)#197 + 865 x(198)#198 + 219 x(199)#199
     + 348 x(200)#200 + 968 x(201)#201 + 198 x(202)#202 + 297 x(203)#203
     + 927 x(204)#204 + 851 x(205)#205 + 775 x(206)#206 + 978 x(207)#207
     + 706 x(208)#208 + 585 x(209)#209 + 421 x(210)#210 + 347 x(211)#211
     + 414 x(212)#212 + 914 x(213)#213 + 179 x(214)#214 + 169 x(215)#215
     + 189 x(216)#216 + 551 x(217)#217 + 223 x(218)#218 + 947 x(219)#219
     + 698 x(220)#220 + 208 x(221)#221 + 235 x(222)#222 + 452 x(223)#223
     + 897 x(224)#224 + 581 x(225)#225 + 545 x(226)#226 + 786 x(227)#227
     + 63 x(228)#228 + 137 x(229)#229 + 807 x(230)#230 + 705 x(231)#231
     + 896 x(232)#232 + 885 x(233)#233 + 520 x(234)#234 + 884 x(235)#235
     + 522 x(236)#236 + 914 x(237)#237 + 206 x(238)#238 + 567 x(239)#239
     + 317 x(240)#240 + 700 x(241)#241 + 672 x(242)#242 + 320 x(243)#243
     + 71 x(244)#244 + 902 x(245)#245 + 992 x(246)#246 + 127 x(247)#247
     + 984 x(248)#248 + 122 x(249)#249 <= 92773
 c3: 17 x(0)#0 + 938 x(1)#1 + 754 x(2)#2 + 318 x(3)#3 + 683 x(4)#4 + 498 x(5)#5
     + 791 x(6)#6 + 917 x(7)#7 + 294 x(8)#8 + 42 x(9)#9 + 816 x(10)#10
     + 298 x(11)#11 + 440 x(12)#12 + 308 x(13)#13 + 361 x(14)#14 + 461 x(15)#15
     + 879 x(16)#16 + 212 x(17)#17 + 718 x(18)#18 + 795 x(19)#19 + 813 x(20)#20
     + 402 x(21)#21 + 75 x(22)#22 + 824 x(23)#23 + 126 x(24)#24 + 272 x(25)#25
     + 22 x(26)#26 + 76 x(27)#27 + 539 x(28)#28 + 591 x(29)#29 + 6 x(30)#30
     + 821 x(31)#31 + 556 x(32)#32 + 682 x(33)#33 + 992 x(34)#34 + 722 x(35)#35
     + 23 x(36)#36 + 399 x(37)#37 + 445 x(38)#38 + 603 x(39)#39 + 235 x(40)#40
     + 617 x(41)#41 + 812 x(42)#42 + 249 x(43)#43 + 947 x(44)#44 + 695 x(45)#45
     + 25 x(46)#46 + 281 x(47)#47 + 307 x(48)#48 + 866 x(49)#49 + 162 x(50)#50
     + 72 x(51)#51 + 700 x(52)#52 + 168 x(53)#53 + 214 x(54)#54 + 630 x(55)#55
     + 720 x(56)#56 + 716 x(57)#57 + 925 x(58)#58 + 2 x(59)#59 + 116 x(60)#60
     + 618 x(61)#61 + 245 x(62)#62 + 449 x(63)#63 + 256 x(64)#64 + 963 x(65)#65
     + 649 x(66)#66 + 789 x(67)#67 + 551 x(68)#68 + 389 x(69)#69 + 722 x(70)#70
     + 375 x(71)#71 + 71 x(72)#72 + 607 x(73)#73 + 379 x(74)#74 + 893 x(75)#75
     + 272 x(76)#76 + 543 x(77)#77 + 125 x(78)#78 + 594 x(79)#79 + 141 x(80)#80
     + 829 x(81)#81 + 688 x(82)#82 + 296 x(83)#83 + 892 x(84)#84 + 107 x(85)#85
     + 692 x(86)#86 + 614 x(87)#87 + 692 x(88)#88 + 99 x(89)#89 + 850 x(90)#90
     + 689 x(91)#91 + 475 x(92)#92 + 511 x(93)#93 + 957 x(94)#94 + 860 x(95)#95
     + 605 x(96)#96 + 734 x(97)#97 + 616 x(98)#98 + 559 x(99)#99
     + 324 x(100)#100 + 947 x(101)#101 + 215 x(102)#102 + 25 x(103)#103
     + 882 x(104)#104 + 509 x(105)#105 + 28 x(106)#106 + 110 x(107)#107
     + 975 x(108)#108 + 319 x(109)#109 + 704 x(110)#110 + 398 x(111)#111
     + 20 x(112)#112 + 485 x(113)#113 + 470 x(114)#114 + 531 x(115)#115
     + 635 x(116)#116 + 475 x(117)#117 + 37 x(118)#118 + 632 x(119)#119
     + 660 x(120)#120 + 501 x(121)#121 + 446 x(122)#122 + 657 x(123)#123
     + 592 x(124)#124 + 662 x(125)#125 + 432 x(126)#126 + 39 x(127)#127
     + 699 x(128)#128 + 346 x(129)#129 + 891 x(130)#130 + 49 x(131)#131
     + 781 x(132)#132 + 874 x(133)#133 + 315 x(134)#134 + 937 x(135)#135
     + 285 x(136)#136 + 754 x(137)#137 + 385 x(138)#138 + 291 x(139)#139
     + 609 x(140)#140 + 804 x(141)#141 + 760 x(142)#142 + 126 x(143)#143
     + 959 x(144)#144 + 387 x(145)#145 + 796 x(146)#146 + 512 x(147)#147
     + 635 x(148)#148 + 79 x(149)#149 + 203 x(150)#150 + 132 x(151)#151
     + 7 x(152)#152 + 171 x(153)#153 + 544 x(154)#154 + 866 x(155)#155
     + 60 x(156)#156 + 248 x(157)#157 + 684 x(158)#158 + 794 x(159)#159
     + 171 x(160)#160 + 551 x(161)#161 + 587 x(162)#162 + 785 x(163)#163
     + 585 x(164)#164 + 985 x(165)#165 + 375 x(166)#166 + 159 x(167)#167
     + 198 x(168)#168 + 943 x(169)#169 + 719 x(170)#170 + 502 x(171)#171
     + 181 x(172)#172 + 568 x(173)#173 + 94 x(174)#174 + 34 x(175)#175
     + 745 x(176)#176 + 790 x(177)#177 + 907 x(178)#178 + 25 x(179)#179
     + 515 x(180)#180 + 279 x(181)#181 + 476 x(182)#182 + 457 x(183)#183
     + 493 x(184)#184 + 293 x(185)#185 + 625 x(186)#186 + 788 x(187)#187
     + 766 x(188)#188 + 924 x(189)#189 + 529 x(190)#190 + 597 x(191)#191
     + 724 x(192)#192 + 38 x(193)#193 + 232 x(194)#194 + 968 x(195)#195
     + 91 x(196)#196 + 649 x(197)#197 + 779 x(198)#198 + 795 x(199)#199
     + 151 x(200)#200 + 307 x(201)#201 + 417 x(202)#202 + 85 x(203)#203
     + 619 x(204)#204 + 659 x(205)#205 + x(206)#206 + 202 x(207)#207
     + 767 x(208)#208 + 815 x(209)#209 + 851 x(210)#210 + 756 x(211)#211
     + 587 x(212)#212 + 684 x(213)#213 + 872 x(214)#214 + 241 x(215)#215
     + 879 x(216)#216 + 682 x(217)#217 + 745 x(218)#218 + 335 x(219)#219
     + 446 x(220)#220 + 203 x(221)#221 + 745 x(222)#222 + 440 x(223)#223
     + 670 x(224)#224 + 895 x(225)#225 + 465 x(226)#226 + 845 x(227)#227
     + 104 x(228)#228 + 17 x(229)#229 + 943 x(230)#230 + 772 x(231)#231
     + 975 x(232)#232 + 783 x(233)#233 + 741 x(234)#234 + 594 x(235)#235
     + 539 x(236)#236 + 748 x(237)#237 + 275 x(238)#238 + 374 x(239)#239
     + 186 x(240)#240 + 749 x(241)#241 + 628 x(242)#242 + 675 x(243)#243
     + 387 x(244)#244 + 222 x(245)#245 + 137 x(246)#246 + 243 x(247)#247
     + 531 x(248)#248 + 626 x(249)#249 <= 94959
 c4: 376 x(0)#0 + 699 x(1)#1 + 364 x(2)#2 + 612 x(3)#3 + 138 x(4)#4
     + 979 x(5)#5 + 321 x(6)#6 + 145 x(7)#7 + 575 x(8)#8 + 570 x(9)#9
     + 121 x(10)#10 + 25 x(11)#11 + 242 x(12)#12 + 452 x(13)#13 + 574 x(14)#14
     + 706 x(15)#15 + 372 x(16)#16 + 19 x(17)#17 + 781 x(18)#18 + 987 x(19)#19
     + 970 x(20)#20 + 582 x(21)#21 + 307 x(22)#22 + 817 x(23)#23 + 45 x(24)#24
     + 188 x(25)#25 + 140 x(26)#26 + 371 x(27)#27 + 813 x(28)#28 + 118 x(29)#29
     + 427 x(30)#30 + 742 x(31)#31 + 869 x(32)#32 + 744 x(33)#33 + 168 x(34)#34
     + 232 x(35)#35 + 781 x(36)#36 + 694 x(37)#37 + 133 x(38)#38 + 444 x(39)#39
     + 730 x(40)#40 + 574 x(41)#41 + 559 x(42)#42 + 930 x(43)#43 + 853 x(44)#44
     + 482 x(45)#45 + 925 x(46)#46 + 44 x(47)#47 + 102 x(48)#48 + 633 x(49)#49
     + 105 x(50)#50 + 849 x(51)#51 + 174 x(52)#52 + 986 x(53)#53 + 665 x(54)#54
     + 410 x(55)#55 + 863 x(56)#56 + 448 x(57)#57 + 989 x(58)#58 + 630 x(59)#59
     + 941 x(60)#60 + 44 x(61)#61 + 774 x(62)#62 + 885 x(63)#63 + 457 x(64)#64
     + 846 x(65)#65 + 731 x(66)#66 + 390 x(67)#67 + 473 x(68)#68 + 657 x(69)#69
     + 98 x(70)#70 + 385 x(71)#71 + 977 x(72)#72 + 729 x(73)#73 + 593 x(74)#74
     + 468 x(75)#75 + 448 x(76)#76 + 869 x(77)#77 + 306 x(78)#78 + 470 x(79)#79
     + 66 x(80)#80 + 148 x(81)#81 + 496 x(82)#82 + 821 x(83)#83 + 168 x(84)#84
     + 106 x(85)#85 + 708 x(86)#86 + 320 x(87)#87 + 954 x(88)#88 + 583 x(89)#89
     + 70 x(90)#90 + 44 x(91)#91 + 56 x(92)#92 + 92 x(93)#93 + 692 x(94)#94
     + 543 x(95)#95 + 20 x(96)#96 + 820 x(97)#97 + 147 x(98)#98 + 734 x(99)#99
     + 47 x(100)#100 + 68 x(101)#101 + 513 x(102)#102 + 959 x(103)#103
     + 245 x(104)#104 + 418 x(105)#105 + 15 x(106)#106 + 230 x(107)#107
     + 658 x(108)#108 + 751 x(109)#109 + 839 x(110)#110 + 55 x(111)#111
     + 121 x(112)#112 + 789 x(113)#113 + 89 x(114)#114 + 944 x(115)#115
     + 336 x(116)#116 + 53 x(117)#117 + 652 x(118)#118 + 740 x(119)#119
     + 533 x(120)#120 + 697 x(121)#121 + 903 x(122)#122 + 911 x(123)#123
     + 727 x(124)#124 + 461 x(125)#125 + 69 x(126)#126 + 605 x(127)#127
     + 781 x(128)#128 + 764 x(129)#129 + 130 x(130)#130 + 465 x(131)#131
     + 599 x(132)#132 + 486 x(133)#133 + 513 x(134)#134 + 863 x(135)#135
     + 110 x(136)#136 + 467 x(137)#137 + 377 x(138)#138 + 56 x(139)#139
     + 452 x(140)#140 + 86 x(141)#141 + 947 x(142)#142 + 40 x(143)#143
     + 931 x(144)#144 + 450 x(145)#145 + 244 x(146)#146 + 809 x(147)#147
     + 486 x(148)#148 + 301 x(149)#149 + 18 x(150)#150 + 798 x(151)#151
     + x(152)#152 + 103 x(153)#153 + 768 x(154)#154 + 383 x(155)#155
     + 250 x(156)#156 + 640 x(157)#157 + 98 x(158)#158 + 663 x(159)#159
     + 149 x(160)#160 + 445 x(161)#161 + 151 x(162)#162 + 31 x(163)#163
     + 721 x(164)#164 + 761 x(165)#165 + 842 x(166)#166 + 888 x(167)#167
     + 491 x(168)#168 + 443 x(169)#169 + 383 x(170)#170 + 339 x(171)#171
     + 758 x(172)#172 + 195 x(173)#173 + 662 x(174)#174 + 832 x(175)#175
     + 575 x(176)#176 + 76 x(177)#177 + 545 x(178)#178 + 25 x(179)#179
     + 457 x(180)#180 + 913 x(181)#181 + 700 x(182)#182 + 20 x(183)#183
     + 102 x(184)#184 + 391 x(185)#185 + 330 x(186)#186 + 627 x(187)#187
     + 185 x(188)#188 + 782 x(189)#189 + 114 x(190)#190 + 172 x(191)#191
     + 108 x(192)#192 + 142 x(193)#193 + 371 x(194)#194 + 734 x(195)#195
     + 268 x(196)#196 + 403 x(197)#197 + 476 x(198)#198 + 298 x(199)#199
     + 725 x(200)#200 + 657 x(201)#201 + 730 x(202)#202 + 486 x(203)#203
     + 535 x(204)#204 + 527 x(205)#205 + 784 x(206)#206 + 240 x(207)#207
     + 14 x(208)#208 + 515 x(209)#209 + 192 x(210)#210 + 751 x(211)#211
     + 891 x(212)#212 + 312 x(213)#213 + 364 x(214)#214 + 641 x(215)#215
     + 764 x(216)#216 + 825 x(217)#217 + 11 x(218)#218 + 291 x(219)#219
     + 891 x(220)#220 + 93 x(221)#221 + 684 x(222)#222 + 60 x(223)#223
     + 825 x(224)#224 + 344 x(225)#225 + 868 x(226)#226 + 825 x(227)#227
     + 825 x(228)#228 + 518 x(229)#229 + 536 x(230)#230 + 990 x(231)#231
     + 28 x(232)#232 + 863 x(233)#233 + 497 x(234)#234 + 225 x(235)#235
     + 472 x(236)#236 + 816 x(237)#237 + 954 x(238)#238 + 471 x(239)#239
     + 320 x(240)#240 + 663 x(241)#241 + 914 x(242)#242 + 931 x(243)#243
     + 849 x(244)#244 + 748 x(245)#245 + 281 x(246)#246 + 986 x(247)#247
     + 490 x(248)#248 + 415 x(249)#249 <= 92079
 c5: 621 x(0)#0 + 416 x(1)#1 + 153 x(2)#2 + 142 x(3)#3 + 754 x(4)#4
     + 888 x(5)#5 + 581 x(6)#6 + 284 x(7)#7 + 948 x(8)#8 + 173 x(9)#9
     + 543 x(10)#10 + 800 x(11)#11 + 676 x(12)#12 + 796 x(13)#13 + 496 x(14)#14
     + 555 x(15)#15 + 756 x(16)#16 + 69 x(17)#17 + 521 x(18)#18 + 231 x(19)#19
     + 650 x(20)#20 + 206 x(21)#21 + 980 x(22)#22 + 551 x(23)#23 + 589 x(24)#24
     + 294 x(25)#25 + 502 x(26)#26 + 595 x(27)#27 + 260 x(28)#28 + 858 x(29)#29
     + 433 x(30)#30 + 144 x(31)#31 + 191 x(32)#32 + 985 x(33)#33 + 858 x(34)#34
     + 625 x(35)#35 + 572 x(36)#36 + 847 x(37)#37 + 536 x(38)#38 + 400 x(39)#39
     + 834 x(40)#40 + 668 x(41)#41 + 768 x(42)#42 + 539 x(43)#43 + 394 x(44)#44
     + 947 x(45)#45 + 872 x(46)#46 + 974 x(47)#47 + 499 x(48)#48 + 314 x(49)#49
     + 433 x(50)#50 + 460 x(51)#51 + 658 x(52)#52 + 988 x(53)#53 + 595 x(54)#54
     + 797 x(55)#55 + 787 x(56)#56 + 351 x(57)#57 + 208 x(58)#58 + 358 x(59)#59
     + 715 x(60)#60 + 686 x(61)#61 + 160 x(62)#62 + 972 x(63)#63 + 977 x(64)#64
     + 839 x(65)#65 + 320 x(66)#66 + 62 x(67)#67 + 456 x(68)#68 + 602 x(69)#69
     + 729 x(70)#70 + 877 x(71)#71 + 974 x(72)#72 + 446 x(73)#73 + 641 x(74)#74
     + 613 x(75)#75 + 489 x(76)#76 + 843 x(77)#77 + 477 x(78)#78 + 568 x(79)#79
     + 942 x(80)#80 + 39 x(81)#81 + 921 x(82)#82 + 623 x(83)#83 + 833 x(84)#84
     + 297 x(85)#85 + 645 x(86)#86 + 152 x(87)#87 + 300 x(88)#88 + 703 x(89)#89
     + 592 x(90)#90 + 62 x(91)#91 + 599 x(92)#92 + 72 x(93)#93 + 584 x(94)#94
     + 603 x(95)#95 + 852 x(96)#96 + 65 x(97)#97 + 185 x(98)#98 + 101 x(99)#99
     + 568 x(100)#100 + 216 x(101)#101 + 81 x(102)#102 + 108 x(103)#103
     + 968 x(104)#104 + 730 x(105)#105 + 805 x(106)#106 + 567 x(107)#107
     + 601 x(108)#108 + 53 x(109)#109 + 582 x(110)#110 + 994 x(111)#111
     + 221 x(112)#112 + 876 x(113)#113 + 961 x(114)#114 + 128 x(115)#115
     + 335 x(116)#116 + 246 x(117)#117 + 257 x(118)#118 + 648 x(119)#119
     + 838 x(120)#120 + 661 x(121)#121 + 309 x(122)#122 + 929 x(123)#123
     + 473 x(124)#124 + 320 x(125)#125 + 265 x(126)#126 + 180 x(127)#127
     + 982 x(128)#128 + 71 x(129)#129 + 525 x(130)#130 + 446 x(131)#131
     + 835 x(132)#132 + 618 x(133)#133 + 928 x(134)#134 + 227 x(135)#135
     + 408 x(136)#136 + 528 x(137)#137 + 162 x(138)#138 + 465 x(139)#139
     + 907 x(140)#140 + 776 x(141)#141 + 804 x(142)#142 + 186 x(143)#143
     + 929 x(144)#144 + 706 x(145)#145 + 561 x(146)#146 + 279 x(147)#147
     + 933 x(148)#148 + 882 x(149)#149 + 672 x(150)#150 + 524 x(151)#151
     + 338 x(152)#152 + 394 x(153)#153 + 512 x(154)#154 + 472 x(155)#155
     + 896 x(156)#156 + 60 x(157)#157 + 643 x(158)#158 + 361 x(159)#159
     + 385 x(160)#160 + 282 x(161)#161 + 982 x(162)#162 + 465 x(163)#163
     + 561 x(164)#164 + 743 x(165)#165 + 950 x(166)#166 + 347 x(167)#167
     + 807 x(168)#168 + 97 x(169)#169 + 113 x(170)#170 + 267 x(171)#171
     + 189 x(172)#172 + 684 x(173)#173 + 407 x(174)#174 + 753 x(175)#175
     + 345 x(176)#176 + 264 x(177)#177 + 224 x(178)#178 + 436 x(179)#179
     + 929 x(180)#180 + 958 x(181)#181 + 546 x(182)#182 + 998 x(183)#183
     + 657 x(184)#184 + 317 x(185)#185 + 617 x(186)#186 + 795 x(187)#187
     + 108 x(188)#188 + 935 x(189)#189 + 37 x(190)#190 + 8 x(191)#191
     + 604 x(192)#192 + 906 x(193)#193 + 690 x(194)#194 + 814 x(195)#195
     + 354 x(196)#196 + 87 x(197)#197 + 474 x(198)#198 + 20 x(199)#199
     + 364 x(200)#200 + 780 x(201)#201 + 322 x(202)#202 + 294 x(203)#203
     + 537 x(204)#204 + 314 x(205)#205 + 535 x(206)#206 + 47 x(207)#207
     + 205 x(208)#208 + 767 x(209)#209 + 183 x(210)#210 + 87 x(211)#211
     + 469 x(212)#212 + 321 x(213)#213 + 879 x(214)#214 + 260 x(215)#215
     + 106 x(216)#216 + 398 x(217)#217 + 768 x(218)#218 + 666 x(219)#219
     + 46 x(220)#220 + 446 x(221)#221 + 184 x(222)#222 + 963 x(223)#223
     + 567 x(224)#224 + 470 x(225)#225 + 49 x(226)#226 + 277 x(227)#227
     + 358 x(228)#228 + 387 x(229)#229 + 941 x(230)#230 + 78 x(231)#231
     + 503 x(232)#232 + 938 x(233)#233 + 717 x(234)#234 + 688 x(235)#235
     + 342 x(236)#236 + 906 x(237)#237 + 443 x(238)#238 + 932 x(239)#239
     + 165 x(240)#240 + 750 x(241)#241 + 237 x(242)#242 + 847 x(243)#243
     + 1000 x(244)#244 + 756 x(245)#245 + 86 x(246)#246 + 248 x(247)#247
     + 453 x(248)#248 + 390 x(249)#249 <= 98335
Bounds
 0 <= x(0)#0 <= 1
 0 <= x(1)#1 <= 1
 0 <= x(2)#2 <= 1
 0 <= x(3)#3 <= 1
 0 <= x(4)#4 <= 1
 0 <= x(5)#5 <= 1
 0 <= x(6)#6 <= 1
 0 <= x(7)#7 <= 1
 0 <= x(8)#8 <= 1
 0 <= x(9)#9 <= 1
 0 <= x(10)#10 <= 1
 0 <= x(11)#11 <= 1
 0 <= x(12)#12 <= 1
 0 <= x(13)#13 <= 1
 0 <= x(14)#14 <= 1
 0 <= x(15)#15 <= 1
 0 <= x(16)#16 <= 1
 0 <= x(17)#17 <= 1
 0 <= x(18)#18 <= 1
 0 <= x(19)#19 <= 1
 0 <= x(20)#20 <= 1
 0 <= x(21)#21 <= 1
 0 <= x(22)#22 <= 1
 0 <= x(23)#23 <= 1
 0 <= x(24)#24 <= 1
 0 <= x(25)#25 <= 1
 0 <= x(26)#26 <= 1
 0 <= x(27)#27 <= 1
 0 <= x(28)#28 <= 1
 0 <= x(29)#29 <= 1
 0 <= x(30)#30 <= 1
 0 <= x(31)#31 <= 1
 0 <= x(32)#32 <= 1
 0 <= x(33)#33 <= 1
 0 <= x(34)#34 <= 1
 0 <= x(35)#35 <= 1
 0 <= x(36)#36 <= 1
 0 <= x(37)#37 <= 1
 0 <= x(38)#38 <= 1
 0 <= x(39)#39 <= 1
 0 <= x(40)#40 <= 1
 0 <= x(41)#41 <= 1
 0 <= x(42)#42 <= 1
 0 <= x(43)#43 <= 1
 0 <= x(44)#44 <= 1
 0 <= x(45)#45 <= 1
 0 <= x(46)#46 <= 1
 0 <= x(47)#47 <= 1
 0 <= x(48)#48 <= 1
 0 <= x(49)#49 <= 1
 0 <= x(50)#50 <= 1
 0 <= x(51)#51 <= 1
 0 <= x(52)#52 <= 1
 0 <= x(53)#53 <= 1
 0 <= x(54)#54 <= 1
 0 <= x(55)#55 <= 1
 0 <= x(56)#56 <= 1
 0 <= x(57)#57 <= 1
 0 <= x(58)#58 <= 1
 0 <= x(59)#59 <= 1
 0 <= x(60)#60 <= 1
 0 <= x(61)#61 <= 1
 0 <= x(62)#62 <= 1
 0 <= x(63)#63 <= 1
 0 <= x(64)#64 <= 1
 0 <= x(65)#65 <= 1
 0 <= x(66)#66 <= 1
 0 <= x(67)#67 <= 1
 0 <= x(68)#68 <= 1
 0 <= x(69)#69 <= 1
 0 <= x(70)#70 <= 1
 0 <= x(71)#71 <= 1
 0 <= x(72)#72 <= 1
 0 <= x(73)#73 <= 1
 0 <= x(74)#74 <= 1
 0 <= x(75)#75 <= 1
 0 <= x(76)#76 <= 1
 0 <= x(77)#77 <= 1
 0 <= x(78)#78 <= 1
 0 <= x(79)#79 <= 1
 0 <= x(80)#80 <= 1
 0 <= x(81)#81 <= 1
 0 <= x(82)#82 <= 1
 0 <= x(83)#83 <= 1
 0 <= x(84)#84 <= 1
 0 <= x(85)#85 <= 1
 0 <= x(86)#86 <= 1
 0 <= x(87)#87 <= 1
 0 <= x(88)#88 <= 1
 0 <= x(89)#89 <= 1
 0 <= x(90)#90 <= 1
 0 <= x(91)#91 <= 1
 0 <= x(92)#92 <= 1
 0 <= x(93)#93 <= 1
 0 <= x(94)#94 <= 1
 0 <= x(95)#95 <= 1
 0 <= x(96)#96 <= 1
 0 <= x(97)#97 <= 1
 0 <= x(98)#98 <= 1
 0 <= x(99)#99 <= 1
 0 <= x(100)#100 <= 1
 0 <= x(101)#101 <= 1
 0 <= x(102)#102 <= 1
 0 <= x(103)#103 <= 1
 0 <= x(104)#104 <= 1
 0 <= x(105)#105 <= 1
 0 <= x(106)#106 <= 1
 0 <= x(107)#107 <= 1
 0 <= x(108)#108 <= 1
 0 <= x(109)#109 <= 1
 0 <= x(110)#110 <= 1
 0 <= x(111)#111 <= 1
 0 <= x(112)#112 <= 1
 0 <= x(113)#113 <= 1
 0 <= x(114)#114 <= 1
 0 <= x(115)#115 <= 1
 0 <= x(116)#116 <= 1
 0 <= x(117)#117 <= 1
 0 <= x(118)#118 <= 1
 0 <= x(119)#119 <= 1
 0 <= x(120)#120 <= 1
 0 <= x(121)#121 <= 1
 0 <= x(122)#122 <= 1
 0 <= x(123)#123 <= 1
 0 <= x(124)#124 <= 1
 0 <= x(125)#125 <= 1
 0 <= x(126)#126 <= 1
 0 <= x(127)#127 <= 1
 0 <= x(128)#128 <= 1
 0 <= x(129)#129 <= 1
 0 <= x(130)#130 <= 1
 0 <= x(131)#131 <= 1
 0 <= x(132)#132 <= 1
 0 <= x(133)#133 <= 1
 0 <= x(134)#134 <= 1
 0 <= x(135)#135 <= 1
 0 <= x(136)#136 <= 1
 0 <= x(137)#137 <= 1
 0 <= x(138)#138 <= 1
 0 <= x(139)#139 <= 1
 0 <= x(140)#140 <= 1
 0 <= x(141)#141 <= 1
 0 <= x(142)#142 <= 1
 0 <= x(143)#143 <= 1
 0 <= x(144)#144 <= 1
 0 <= x(145)#145 <= 1
 0 <= x(146)#146 <= 1
 0 <= x(147)#147 <= 1
 0 <= x(148)#148 <= 1
 0 <= x(149)#149 <= 1
 0 <= x(150)#150 <= 1
 0 <= x(151)#151 <= 1
 0 <= x(152)#152 <= 1
 0 <= x(153)#153 <= 1
 0 <= x(154)#154 <= 1
 0 <= x(155)#155 <= 1
 0 <= x(156)#156 <= 1
 0 <= x(157)#157 <= 1
 0 <= x(158)#158 <= 1
 0 <= x(159)#159 <= 1
 0 <= x(160)#160 <= 1
 0 <= x(161)#161 <= 1
 0 <= x(162)#162 <= 1
 0 <= x(163)#163 <= 1
 0 <= x(164)#164 <= 1
 0 <= x(165)#165 <= 1
 0 <= x(166)#166 <= 1
 0 <= x(167)#167 <= 1
 0 <= x(168)#168 <= 1
 0 <= x(169)#169 <= 1
 0 <= x(170)#170 <= 1
 0 <= x(171)#171 <= 1
 0 <= x(172)#172 <= 1
 0 <= x(173)#173 <= 1
 0 <= x(174)#174 <= 1
 0 <= x(175)#175 <= 1
 0 <= x(176)#176 <= 1
 0 <= x(177)#177 <= 1
 0 <= x(178)#178 <= 1
 0 <= x(179)#179 <= 1
 0 <= x(180)#180 <= 1
 0 <= x(181)#181 <= 1
 0 <= x(182)#182 <= 1
 0 <= x(183)#183 <= 1
 0 <= x(184)#184 <= 1
 0 <= x(185)#185 <= 1
 0 <= x(186)#186 <= 1
 0 <= x(187)#187 <= 1
 0 <= x(188)#188 <= 1
 0 <= x(189)#189 <= 1
 0 <= x(190)#190 <= 1
 0 <= x(191)#191 <= 1
 0 <= x(192)#192 <= 1
 0 <= x(193)#193 <= 1
 0 <= x(194)#194 <= 1
 0 <= x(195)#195 <= 1
 0 <= x(196)#196 <= 1
 0 <= x(197)#197 <= 1
 0 <= x(198)#198 <= 1
 0 <= x(199)#199 <= 1
 0 <= x(200)#200 <= 1
 0 <= x(201)#201 <= 1
 0 <= x(202)#202 <= 1
 0 <= x(203)#203 <= 1
 0 <= x(204)#204 <= 1
 0 <= x(205)#205 <= 1
 0 <= x(206)#206 <= 1
 0 <= x(207)#207 <= 1
 0 <= x(208)#208 <= 1
 0 <= x(209)#209 <= 1
 0 <= x(210)#210 <= 1
 0 <= x(211)#211 <= 1
 0 <= x(212)#212 <= 1
 0 <= x(213)#213 <= 1
 0 <= x(214)#214 <= 1
 0 <= x(215)#215 <= 1
 0 <= x(216)#216 <= 1
 0 <= x(217)#217 <= 1
 0 <= x(218)#218 <= 1
 0 <= x(219)#219 <= 1
 0 <= x(220)#220 <= 1
 0 <= x(221)#221 <= 1
 0 <= x(222)#222 <= 1
 0 <= x(223)#223 <= 1
 0 <= x(224)#224 <= 1
 0 <= x(225)#225 <= 1
 0 <= x(226)#226 <= 1
 0 <= x(227)#227 <= 1
 0 <= x(228)#228 <= 1
 0 <= x(229)#229 <= 1
 0 <= x(230)#230 <= 1
 0 <= x(231)#231 <= 1
 0 <= x(232)#232 <= 1
 0 <= x(233)#233 <= 1
 0 <= x(234)#234 <= 1
 0 <= x(235)#235 <= 1
 0 <= x(236)#236 <= 1
 0 <= x(237)#237 <= 1
 0 <= x(238)#238 <= 1
 0 <= x(239)#239 <= 1
 0 <= x(240)#240 <= 1
 0 <= x(241)#241 <= 1
 0 <= x(242)#242 <= 1
 0 <= x(243)#243 <= 1
 0 <= x(244)#244 <= 1
 0 <= x(245)#245 <= 1
 0 <= x(246)#246 <= 1
 0 <= x(247)#247 <= 1
 0 <= x(248)#248 <= 1
 0 <= x(249)#249 <= 1
Generals
 x(0)#0  x(1)#1  x(2)#2  x(3)#3  x(4)#4  x(5)#5  x(6)#6  x(7)#7  x(8)#8 
 x(9)#9  x(10)#10  x(11)#11  x(12)#12  x(13)#13  x(14)#14  x(15)#15  x(16)#16 
 x(17)#17  x(18)#18  x(19)#19  x(20)#20  x(21)#21  x(22)#22  x(23)#23 
 x(24)#24  x(25)#25  x(26)#26  x(27)#27  x(28)#28  x(29)#29  x(30)#30 
 x(31)#31  x(32)#32  x(33)#33  x(34)#34  x(35)#35  x(36)#36  x(37)#37 
 x(38)#38  x(39)#39  x(40)#40  x(41)#41  x(42)#42  x(43)#43  x(44)#44 
 x(45)#45  x(46)#46  x(47)#47  x(48)#48  x(49)#49  x(50)#50  x(51)#51 
 x(52)#52  x(53)#53  x(54)#54  x(55)#55  x(56)#56  x(57)#57  x(58)#58 
 x(59)#59  x(60)#60  x(61)#61  x(62)#62  x(63)#63  x(64)#64  x(65)#65 
 x(66)#66  x(67)#67  x(68)#68  x(69)#69  x(70)#70  x(71)#71  x(72)#72 
 x(73)#73  x(74)#74  x(75)#75  x(76)#76  x(77)#77  x(78)#78  x(79)#79 
 x(80)#80  x(81)#81  x(82)#82  x(83)#83  x(84)#84  x(85)#85  x(86)#86 
 x(87)#87  x(88)#88  x(89)#89  x(90)#90  x(91)#91  x(92)#92  x(93)#93 
 x(94)#94  x(95)#95  x(96)#96  x(97)#97  x(98)#98  x(99)#99  x(100)#100 
 x(101)#101  x(102)#102  x(103)#103  x(104)#104  x(105)#105  x(106)#106 
 x(107)#107  x(108)#108  x(109)#109  x(110)#110  x(111)#111  x(112)#112 
 x(113)#113  x(114)#114  x(115)#115  x(116)#116  x(117)#117  x(118)#118 
 x(119)#119  x(120)#120  x(121)#121  x(122)#122  x(123)#123  x(124)#124 
 x(125)#125  x(126)#126  x(127)#127  x(128)#128  x(129)#129  x(130)#130 
 x(131)#131  x(132)#132  x(133)#133  x(134)#134  x(135)#135  x(136)#136 
 x(137)#137  x(138)#138  x(139)#139  x(140)#140  x(141)#141  x(142)#142 
 x(143)#143  x(144)#144  x(145)#145  x(146)#146  x(147)#147  x(148)#148 
 x(149)#149  x(150)#150  x(151)#151  x(152)#152  x(153)#153  x(154)#154 
 x(155)#155  x(156)#156  x(157)#157  x(158)#158  x(159)#159  x(160)#160 
 x(161)#161  x(162)#162  x(163)#163  x(164)#164  x(165)#165  x(166)#166 
 x(167)#167  x(168)#168  x(169)#169  x(170)#170  x(171)#171  x(172)#172 
 x(173)#173  x(174)#174  x(175)#175  x(176)#176  x(177)#177  x(178)#178 
 x(179)#179  x(180)#180  x(181)#181  x(182)#182  x(183)#183  x(184)#184 
 x(185)#185  x(186)#186  x(187)#187  x(188)#188  x(189)#189  x(190)#190 
 x(191)#191  x(192)#192  x(193)#193  x(194)#194  x(195)#195  x(196)#196 
 x(197)#197  x(198)#198  x(199)#199  x(200)#200  x(201)#201  x(202)#202 
 x(203)#203  x(204)#204  x(205)#205  x(206)#206  x(207)#207  x(208)#208 
 x(209)#209  x(210)#210  x(211)#211  x(212)#212  x(213)#213  x(214)#214 
 x(215)#215  x(216)#216  x(217)#217  x(218)#218  x(219)#219  x(220)#220 
 x(221)#221  x(222)#222  x(223)#223  x(224)#224  x(225)#225  x(226)#226 
 x(227)#227  x(228)#228  x(229)#229  x(230)#230  x(231)#231  x(232)#232 
 x(233)#233  x(234)#234  x(235)#235  x(236)#236  x(237)#237  x(238)#238 
 x(239)#239  x(240)#240  x(241)#241  x(242)#242  x(243)#243  x(244)#244 
 x(245)#245  x(246)#246  x(247)#247  x(248)#248  x(249)#249 
End
